p cnf 137 349
a 10 8 6 4 2 59 31 29 27 25 23 21 95 100 108 116 124 1 20 0
d 33 59 1 0
d 94 95 20 0
d 3 2 0
d 5 4 0
d 7 6 0
d 9 8 0
d 11 10 0
d 12 10 0
d 13 10 0
d 14 8 10 0
d 15 6 8 10 0
d 16 4 6 8 10 0
d 17 2 4 6 8 10 0
d 18 1 2 4 6 8 10 0
d 19 1 2 4 6 8 10 0
d 22 21 0
d 24 23 0
d 26 25 0
d 28 27 0
d 30 29 0
d 32 31 0
d 34 31 59 1 0
d 35 29 31 59 1 0
d 36 27 29 31 59 1 0
d 37 25 27 29 31 59 1 0
d 38 23 25 27 29 31 59 1 0
d 39 21 23 25 27 29 31 59 1 0
d 40 20 21 23 25 27 29 31 59 1 0
d 41 20 21 23 25 27 29 31 59 1 0
d 42 1 2 4 6 8 10 20 21 23 25 27 29 31 59 0
d 43 10 0
d 44 10 0
d 45 8 10 0
d 46 8 10 0
d 47 10 8 0
d 48 6 8 10 0
d 49 6 8 10 0
d 50 6 8 10 0
d 51 6 8 10 0
d 52 10 8 6 0
d 53 4 6 8 10 0
d 54 4 6 8 10 0
d 55 10 8 6 4 0
d 56 2 4 6 8 10 0
d 57 2 4 6 8 10 0
d 58 10 8 6 4 2 0
d 60 59 2 4 6 8 10 0
d 61 59 2 4 6 8 10 0
d 62 10 8 6 4 2 59 0
d 63 31 59 1 0
d 64 59 0
d 65 59 2 4 6 8 10 0
d 66 31 59 2 4 6 8 10 0
d 67 31 59 1 2 4 6 8 10 0
d 68 10 8 6 4 2 59 31 1 0
d 69 29 31 59 1 0
d 70 31 59 2 4 6 8 10 0
d 71 29 31 59 2 4 6 8 10 0
d 72 29 31 59 1 2 4 6 8 10 0
d 73 10 8 6 4 2 59 31 1 29 0
d 74 27 29 31 59 1 0
d 75 29 31 59 2 4 6 8 10 0
d 76 27 29 31 59 2 4 6 8 10 0
d 77 27 29 31 59 1 2 4 6 8 10 0
d 78 10 8 6 4 2 59 31 1 29 27 0
d 79 25 27 29 31 59 1 0
d 80 27 29 31 59 2 4 6 8 10 0
d 81 25 27 29 31 59 2 4 6 8 10 0
d 82 25 27 29 31 59 1 2 4 6 8 10 0
d 83 10 8 6 4 2 59 31 1 29 27 25 0
d 84 23 25 27 29 31 59 1 0
d 85 25 27 29 31 59 2 4 6 8 10 0
d 86 23 25 27 29 31 59 2 4 6 8 10 0
d 87 23 25 27 29 31 59 1 2 4 6 8 10 0
d 88 10 8 6 4 2 59 31 1 29 27 25 23 0
d 89 21 23 25 27 29 31 59 1 0
d 90 23 25 27 29 31 59 2 4 6 8 10 0
d 91 21 23 25 27 29 31 59 2 4 6 8 10 0
d 92 21 23 25 27 29 31 59 1 2 4 6 8 10 0
d 93 10 8 6 4 2 59 31 1 29 27 25 23 21 0
d 96 21 23 25 27 29 31 59 2 4 6 8 10 0
d 97 95 21 23 25 27 29 31 59 2 4 6 8 10 0
d 98 95 20 21 23 25 27 29 31 59 2 4 6 8 10 0
d 99 10 8 6 4 2 59 31 1 29 27 25 23 21 95 20 0
d 101 95 0
d 102 95 21 23 25 27 29 31 59 1 0
d 103 100 95 21 23 25 27 29 31 59 1 0
d 104 95 21 23 25 27 29 31 59 2 4 6 8 10 0
d 105 100 95 21 23 25 27 29 31 59 2 4 6 8 10 0
d 106 100 95 21 23 25 27 29 31 59 1 2 4 6 8 10 0
d 107 10 8 6 4 2 59 31 1 29 27 25 23 21 95 20 100 0
d 109 100 0
d 110 100 95 21 23 25 27 29 31 59 1 0
d 111 108 100 95 21 23 25 27 29 31 59 1 0
d 112 100 95 21 23 25 27 29 31 59 2 4 6 8 10 0
d 113 108 100 95 21 23 25 27 29 31 59 2 4 6 8 10 0
d 114 108 100 95 21 23 25 27 29 31 59 1 2 4 6 8 10 0
d 115 10 8 6 4 2 59 31 1 29 27 25 23 21 95 20 100 108 0
d 117 108 0
d 118 108 100 95 21 23 25 27 29 31 59 1 0
d 119 116 108 100 95 21 23 25 27 29 31 59 1 0
d 120 108 100 95 21 23 25 27 29 31 59 2 4 6 8 10 0
d 121 116 108 100 95 21 23 25 27 29 31 59 2 4 6 8 10 0
d 122 116 108 100 95 21 23 25 27 29 31 59 1 2 4 6 8 10 0
d 123 10 8 6 4 2 59 31 1 29 27 25 23 21 95 20 100 108 116 0
d 125 116 0
d 126 116 108 100 95 21 23 25 27 29 31 59 1 0
d 127 124 116 108 100 95 21 23 25 27 29 31 59 1 0
d 128 116 108 100 95 21 23 25 27 29 31 59 2 4 6 8 10 0
d 129 124 116 108 100 95 21 23 25 27 29 31 59 2 4 6 8 10 0
d 130 124 116 108 100 95 21 23 25 27 29 31 59 1 2 4 6 8 10 0
d 131 10 8 6 4 2 59 31 1 29 27 25 23 21 95 20 100 108 116 124 0
d 132 124 0
d 133 124 116 108 100 95 21 23 25 27 29 31 59 1 0
d 134 124 116 108 100 95 21 23 25 27 29 31 59 2 4 6 8 10 0
d 135 124 116 108 100 95 21 23 25 27 29 31 59 1 2 4 6 8 10 0
d 136 10 8 6 4 2 59 31 1 29 27 25 23 21 95 20 100 108 116 124 0
d 137 1 2 4 6 8 10 20 21 23 25 27 29 31 59 95 100 108 116 124 0
3 2 0
-3 -2 0
5 4 0
-5 -4 0
7 6 0
-7 -6 0
9 8 0
-9 -8 0
11 10 0
-11 -10 0
12 -10 0
12 -11 0
-12 10 11 0
-13 11 0
-13 12 0
13 -11 -12 0
-14 9 0
-14 13 0
14 -9 -13 0
-15 7 0
-15 14 0
15 -7 -14 0
-16 5 0
-16 15 0
16 -5 -15 0
-17 3 0
-17 16 0
17 -3 -16 0
18 -1 -17 0
18 1 17 0
-18 -1 17 0
-18 1 -17 0
19 18 0
-19 -18 0
22 21 0
-22 -21 0
24 23 0
-24 -23 0
26 25 0
-26 -25 0
28 27 0
-28 -27 0
30 29 0
-30 -29 0
32 31 0
-32 -31 0
-34 32 0
-34 33 0
34 -32 -33 0
-35 30 0
-35 34 0
35 -30 -34 0
-36 28 0
-36 35 0
36 -28 -35 0
-37 26 0
-37 36 0
37 -26 -36 0
-38 24 0
-38 37 0
38 -24 -37 0
-39 22 0
-39 38 0
39 -22 -38 0
40 -20 -39 0
40 20 39 0
-40 -20 39 0
-40 20 -39 0
41 40 0
-41 -40 0
42 -19 0
42 -41 0
-42 19 41 0
-43 10 0
-43 12 0
43 -10 -12 0
44 -43 -43 0
44 43 43 0
-44 -43 43 0
-44 43 -43 0
-45 8 0
-45 13 0
45 -8 -13 0
46 -45 -45 0
46 45 45 0
-46 -45 45 0
-46 45 -45 0
-47 44 0
-47 46 0
47 -44 -46 0
48 -6 0
48 -14 0
-48 6 14 0
49 48 0
-49 -48 0
-50 6 0
-50 14 0
50 -6 -14 0
51 -49 -50 0
51 49 50 0
-51 -49 50 0
-51 49 -50 0
-52 47 0
-52 51 0
52 -47 -51 0
-53 4 0
-53 15 0
53 -4 -15 0
54 -53 -53 0
54 53 53 0
-54 -53 53 0
-54 53 -53 0
-55 52 0
-55 54 0
55 -52 -54 0
-56 2 0
-56 16 0
56 -2 -16 0
57 -56 -56 0
57 56 56 0
-57 -56 56 0
-57 56 -56 0
-58 55 0
-58 57 0
58 -55 -57 0
-60 59 0
-60 17 0
60 -59 -17 0
61 -60 -60 0
61 60 60 0
-61 -60 60 0
-61 60 -60 0
-62 58 0
-62 61 0
62 -58 -61 0
-63 31 0
-63 33 0
63 -31 -33 0
64 59 0
-64 -59 0
-65 64 0
-65 17 0
65 -64 -17 0
-66 31 0
-66 65 0
66 -31 -65 0
67 -63 -66 0
67 63 66 0
-67 -63 66 0
-67 63 -66 0
-68 62 0
-68 67 0
68 -62 -67 0
-69 29 0
-69 34 0
69 -29 -34 0
-70 32 0
-70 65 0
70 -32 -65 0
-71 29 0
-71 70 0
71 -29 -70 0
72 -69 -71 0
72 69 71 0
-72 -69 71 0
-72 69 -71 0
-73 68 0
-73 72 0
73 -68 -72 0
-74 27 0
-74 35 0
74 -27 -35 0
-75 30 0
-75 70 0
75 -30 -70 0
-76 27 0
-76 75 0
76 -27 -75 0
77 -74 -76 0
77 74 76 0
-77 -74 76 0
-77 74 -76 0
-78 73 0
-78 77 0
78 -73 -77 0
-79 25 0
-79 36 0
79 -25 -36 0
-80 28 0
-80 75 0
80 -28 -75 0
-81 25 0
-81 80 0
81 -25 -80 0
82 -79 -81 0
82 79 81 0
-82 -79 81 0
-82 79 -81 0
-83 78 0
-83 82 0
83 -78 -82 0
-84 23 0
-84 37 0
84 -23 -37 0
-85 26 0
-85 80 0
85 -26 -80 0
-86 23 0
-86 85 0
86 -23 -85 0
87 -84 -86 0
87 84 86 0
-87 -84 86 0
-87 84 -86 0
-88 83 0
-88 87 0
88 -83 -87 0
-89 21 0
-89 38 0
89 -21 -38 0
-90 24 0
-90 85 0
90 -24 -85 0
-91 21 0
-91 90 0
91 -21 -90 0
92 -89 -91 0
92 89 91 0
-92 -89 91 0
-92 89 -91 0
-93 88 0
-93 92 0
93 -88 -92 0
-96 22 0
-96 90 0
96 -22 -90 0
-97 95 0
-97 96 0
97 -95 -96 0
98 -94 -97 0
98 94 97 0
-98 -94 97 0
-98 94 -97 0
-99 93 0
-99 98 0
99 -93 -98 0
101 95 0
-101 -95 0
-102 101 0
-102 39 0
102 -101 -39 0
-103 100 0
-103 102 0
103 -100 -102 0
-104 101 0
-104 96 0
104 -101 -96 0
-105 100 0
-105 104 0
105 -100 -104 0
106 -103 -105 0
106 103 105 0
-106 -103 105 0
-106 103 -105 0
-107 99 0
-107 106 0
107 -99 -106 0
109 100 0
-109 -100 0
-110 109 0
-110 102 0
110 -109 -102 0
-111 108 0
-111 110 0
111 -108 -110 0
-112 109 0
-112 104 0
112 -109 -104 0
-113 108 0
-113 112 0
113 -108 -112 0
114 -111 -113 0
114 111 113 0
-114 -111 113 0
-114 111 -113 0
-115 107 0
-115 114 0
115 -107 -114 0
117 108 0
-117 -108 0
-118 117 0
-118 110 0
118 -117 -110 0
-119 116 0
-119 118 0
119 -116 -118 0
-120 117 0
-120 112 0
120 -117 -112 0
-121 116 0
-121 120 0
121 -116 -120 0
122 -119 -121 0
122 119 121 0
-122 -119 121 0
-122 119 -121 0
-123 115 0
-123 122 0
123 -115 -122 0
125 116 0
-125 -116 0
-126 125 0
-126 118 0
126 -125 -118 0
-127 124 0
-127 126 0
127 -124 -126 0
-128 125 0
-128 120 0
128 -125 -120 0
-129 124 0
-129 128 0
129 -124 -128 0
130 -127 -129 0
130 127 129 0
-130 -127 129 0
-130 127 -129 0
-131 123 0
-131 130 0
131 -123 -130 0
132 124 0
-132 -124 0
-133 132 0
-133 126 0
133 -132 -126 0
-134 132 0
-134 128 0
134 -132 -128 0
135 -133 -134 0
135 133 134 0
-135 -133 134 0
-135 133 -134 0
-136 131 0
-136 135 0
136 -131 -135 0
137 -42 0
137 -136 0
-137 42 136 0
137 0
